MSW03
Position Depot: Random
Horizon for Depot: Small
Position of customers: Mixt
Distribution of the demand: Small
Width of time windows: Wide
Distribution of the service: Small

VEHICLE 
NUMBER 	 CAPACITY 
 9 	 	 84 
 
CUSTOMER
CUST NO. 	 XCOORD.  	 YCOORD. 	 DEMAND 	 READY TIME 	 DUE DATE 	 SERVICE TIME 
 0 	 	 664 	 	 407 	 	 0 	 	 0 	 	 1827 	 	 0 
  1 	 	 69 	 	 571 	 	 9 	 	 902 	 	 1285 	 	 70 
  2 	 	 963 	 	 568 	 	 8 	 	 799 	 	 1087 	 	 100 
  3 	 	 310 	 	 662 	 	 7 	 	 522 	 	 914 	 	 74 
  4 	 	 51 	 	 619 	 	 9 	 	 1239 	 	 1627 	 	 83 
  5 	 	 112 	 	 578 	 	 8 	 	 284 	 	 635 	 	 81 
  6 	 	 251 	 	 685 	 	 5 	 	 972 	 	 1273 	 	 94 
  7 	 	 320 	 	 656 	 	 10 	 	 1432 	 	 1827 	 	 95 
  8 	 	 873 	 	 568 	 	 8 	 	 1334 	 	 1552 	 	 89 
  9 	 	 212 	 	 572 	 	 7 	 	 176 	 	 614 	 	 61 
  10 	 	 86 	 	 495 	 	 10 	 	 179 	 	 643 	 	 90 
  11 	 	 76 	 	 488 	 	 5 	 	 268 	 	 652 	 	 89 
  12 	 	 72 	 	 663 	 	 8 	 	 320 	 	 709 	 	 74 
  13 	 	 92 	 	 499 	 	 7 	 	 641 	 	 1060 	 	 88 
  14 	 	 147 	 	 684 	 	 6 	 	 378 	 	 645 	 	 73 
  15 	 	 458 	 	 781 	 	 6 	 	 1400 	 	 1807 	 	 59 
  16 	 	 308 	 	 675 	 	 5 	 	 655 	 	 907 	 	 50 
  17 	 	 939 	 	 505 	 	 5 	 	 1353 	 	 1683 	 	 100 
  18 	 	 310 	 	 658 	 	 5 	 	 723 	 	 1048 	 	 73 
  19 	 	 188 	 	 699 	 	 9 	 	 613 	 	 872 	 	 68 
  20 	 	 414 	 	 663 	 	 8 	 	 654 	 	 878 	 	 54 
  21 	 	 318 	 	 634 	 	 8 	 	 280 	 	 486 	 	 61 
  22 	 	 985 	 	 503 	 	 10 	 	 529 	 	 926 	 	 65 
  23 	 	 207 	 	 749 	 	 6 	 	 237 	 	 627 	 	 79 
  24 	 	 934 	 	 602 	 	 6 	 	 1347 	 	 1603 	 	 57 
  25 	 	 920 	 	 600 	 	 7 	 	 595 	 	 820 	 	 67 
  26 	 	 72 	 	 528 	 	 10 	 	 670 	 	 949 	 	 67 
  27 	 	 271 	 	 632 	 	 7 	 	 593 	 	 873 	 	 53 
  28 	 	 218 	 	 702 	 	 6 	 	 273 	 	 588 	 	 53 
  29 	 	 327 	 	 627 	 	 10 	 	 419 	 	 739 	 	 72 
  30 	 	 288 	 	 684 	 	 7 	 	 675 	 	 1015 	 	 79 
  31 	 	 59 	 	 528 	 	 5 	 	 740 	 	 972 	 	 97 
  32 	 	 305 	 	 598 	 	 9 	 	 1026 	 	 1430 	 	 81 
  33 	 	 94 	 	 551 	 	 8 	 	 278 	 	 658 	 	 59 
  34 	 	 133 	 	 644 	 	 6 	 	 200 	 	 639 	 	 98 
  35 	 	 263 	 	 744 	 	 10 	 	 382 	 	 584 	 	 70 
  36 	 	 215 	 	 518 	 	 7 	 	 1188 	 	 1681 	 	 76 
  37 	 	 3 	 	 522 	 	 7 	 	 1145 	 	 1566 	 	 50 
  38 	 	 118 	 	 731 	 	 6 	 	 780 	 	 1175 	 	 92 
  39 	 	 146 	 	 565 	 	 8 	 	 1417 	 	 1702 	 	 100 
  40 	 	 985 	 	 584 	 	 5 	 	 1374 	 	 1827 	 	 71 
  41 	 	 988 	 	 673 	 	 10 	 	 -39 	 	 461 	 	 80 
  42 	 	 256 	 	 665 	 	 7 	 	 294 	 	 531 	 	 67 
  43 	 	 72 	 	 614 	 	 9 	 	 737 	 	 1026 	 	 80 
  44 	 	 357 	 	 727 	 	 9 	 	 77 	 	 487 	 	 60 
  45 	 	 802 	 	 565 	 	 10 	 	 707 	 	 1127 	 	 94 
  46 	 	 120 	 	 602 	 	 8 	 	 181 	 	 635 	 	 97 
  47 	 	 58 	 	 532 	 	 6 	 	 223 	 	 680 	 	 97 
  48 	 	 31 	 	 585 	 	 10 	 	 673 	 	 970 	 	 69 
  49 	 	 68 	 	 582 	 	 6 	 	 302 	 	 683 	 	 92 
  50 	 	 308 	 	 627 	 	 8 	 	 1013 	 	 1363 	 	 58 
  51 	 	 708 	 	 788 	 	 6 	 	 -13 	 	 421 	 	 57 
  52 	 	 798 	 	 789 	 	 5 	 	 164 	 	 445 	 	 67 
  53 	 	 613 	 	 243 	 	 9 	 	 204 	 	 430 	 	 54 
  54 	 	 514 	 	 761 	 	 10 	 	 174 	 	 439 	 	 91 
  55 	 	 159 	 	 821 	 	 5 	 	 223 	 	 718 	 	 88 
  56 	 	 506 	 	 975 	 	 10 	 	 371 	 	 648 	 	 86 
  57 	 	 158 	 	 367 	 	 9 	 	 1082 	 	 1357 	 	 53 
  58 	 	 387 	 	 576 	 	 10 	 	 1318 	 	 1728 	 	 71 
  59 	 	 138 	 	 630 	 	 8 	 	 708 	 	 916 	 	 86 
  60 	 	 455 	 	 719 	 	 7 	 	 109 	 	 413 	 	 74 
  61 	 	 613 	 	 665 	 	 5 	 	 -45 	 	 289 	 	 59 
  62 	 	 165 	 	 731 	 	 8 	 	 958 	 	 1338 	 	 99 
  63 	 	 468 	 	 847 	 	 8 	 	 1134 	 	 1397 	 	 99 
  64 	 	 202 	 	 255 	 	 5 	 	 1302 	 	 1666 	 	 93 
  65 	 	 734 	 	 561 	 	 10 	 	 394 	 	 689 	 	 77 
  66 	 	 686 	 	 137 	 	 9 	 	 1139 	 	 1380 	 	 60 
  67 	 	 903 	 	 489 	 	 8 	 	 626 	 	 944 	 	 58 
  68 	 	 957 	 	 768 	 	 8 	 	 1382 	 	 1767 	 	 75 
  69 	 	 650 	 	 719 	 	 7 	 	 240 	 	 535 	 	 73 
  70 	 	 793 	 	 552 	 	 6 	 	 953 	 	 1446 	 	 66 
  71 	 	 203 	 	 858 	 	 9 	 	 712 	 	 1168 	 	 85 
  72 	 	 878 	 	 36 	 	 7 	 	 445 	 	 777 	 	 86 
  73 	 	 504 	 	 676 	 	 10 	 	 1410 	 	 1827 	 	 73 
  74 	 	 314 	 	 345 	 	 6 	 	 1439 	 	 1827 	 	 54 
  75 	 	 923 	 	 622 	 	 5 	 	 1111 	 	 1391 	 	 55 
  76 	 	 858 	 	 918 	 	 9 	 	 350 	 	 601 	 	 86 
  77 	 	 242 	 	 812 	 	 9 	 	 408 	 	 655 	 	 62 
  78 	 	 893 	 	 885 	 	 8 	 	 1164 	 	 1576 	 	 80 
  79 	 	 151 	 	 838 	 	 8 	 	 1176 	 	 1535 	 	 85 
  80 	 	 803 	 	 26 	 	 6 	 	 1044 	 	 1402 	 	 92 
  81 	 	 139 	 	 559 	 	 6 	 	 184 	 	 601 	 	 98 
  82 	 	 839 	 	 55 	 	 9 	 	 1257 	 	 1554 	 	 50 
  83 	 	 136 	 	 216 	 	 9 	 	 1346 	 	 1827 	 	 55 
  84 	 	 603 	 	 670 	 	 7 	 	 588 	 	 1060 	 	 71 
  85 	 	 995 	 	 313 	 	 8 	 	 -16 	 	 378 	 	 70 
  86 	 	 99 	 	 501 	 	 8 	 	 422 	 	 680 	 	 96 
  87 	 	 865 	 	 611 	 	 7 	 	 1343 	 	 1827 	 	 76 
  88 	 	 291 	 	 491 	 	 10 	 	 656 	 	 1082 	 	 63 
  89 	 	 196 	 	 524 	 	 5 	 	 1446 	 	 1737 	 	 100 
  90 	 	 679 	 	 915 	 	 10 	 	 226 	 	 559 	 	 57 
  91 	 	 96 	 	 262 	 	 8 	 	 600 	 	 986 	 	 57 
  92 	 	 849 	 	 126 	 	 10 	 	 208 	 	 664 	 	 77 
  93 	 	 195 	 	 410 	 	 8 	 	 891 	 	 1389 	 	 86 
  94 	 	 2 	 	 184 	 	 6 	 	 688 	 	 1100 	 	 94 
  95 	 	 550 	 	 79 	 	 9 	 	 498 	 	 978 	 	 72 
  96 	 	 145 	 	 780 	 	 8 	 	 398 	 	 783 	 	 96 
  97 	 	 997 	 	 269 	 	 6 	 	 1496 	 	 1736 	 	 53 
  98 	 	 157 	 	 154 	 	 6 	 	 1435 	 	 1821 	 	 53 
  99 	 	 586 	 	 386 	 	 8 	 	 842 	 	 1064 	 	 52 
  100 	 	 649 	 	 620 	 	 8 	 	 1401 	 	 1612 	 	 50 
 